\Problem name: Cutting Stock Problem

Minimize
OBJROW: x_0 + x_1 + x_2 + x_3
Subject To
bar_0:  x_1 + x_2 + 3 x_3 >= 50
bar_1:  2 x_0 + x_1 >= 60
bar_2:  x_2 >= 90
Bounds
Integers
x_0 x_1 x_2 x_3 
End
